0,1,2,3,4,5,6,7,1,2,4,3,6,7,5,1,2,4,3,6,7,5
0,1,2,3,4,5,6,7,2,4,3,6,7,5,1,4,3,6,7,5,1,2
0,1,2,3,4,5,6,7,4,3,6,7,5,1,2,6,7,5,1,2,4,3
0,1,2,3,4,5,6,7,3,6,7,5,1,2,4,5,1,2,4,3,6,7
0,1,2,3,4,5,6,7,6,7,5,1,2,4,3,2,4,3,6,7,5,1
0,1,2,3,4,5,6,7,7,5,1,2,4,3,6,3,6,7,5,1,2,4
0,1,2,3,4,5,6,7,5,1,2,4,3,6,7,7,5,1,2,4,3,6
